39 23 67 55 24 80 
59 99 6 
14 44 38 43 13 
28 29 79 3 68 
45 8 46 17 
72 75 22 74 58 
62 11 90 32 70 
42 15 94 96 
36 47 19 49 48 
27 69 51 9 66 1 
31 30 20 
40 53 26 
63 64 10 
83 82 18 84 60 89 
12 76 54 
52 88 7 
5 61 85 37 93 
92 98 16 86 91 100 
33 81 50 
65 71 78 34 35 77 
2 21 73 41 56 4 25 
95 87 57 97 
